882
921
989
958
914
894
1020
901
974
908
939
954
802
881
867
826
1027
891
915
922
964
860
926
889
1027
840
890
842
829
834
902
914
850
961
882
931
911
890
915
831
916
982
1042
839
1065
870
863
921
1000
1049
1005
852
865
945
952
821
819
873
1007
966
831
963
929
864
914
875
954
839
951
807
945
890
859
909
793
1079
979
849
989
897
859
863
918
878
818
979
838
889
917
989
915
903
914
890
910
891
920
971
1003
858
